# Random Circle Problem
param d := 0.05; 
param n := 10; 
param radius := 2.00; 
param v0 := 
1 5.45
2 5.23
3 5.89
4 5.81
5 5.51
6 5.75
7 4.89
8 5.53
9 5.91
10 5.62
;
param cap := 
1 3.38890
2 3.70347
3 4.57594
4 5.09960
5 5.55754
6 5.95579
7 0.51246
8 1.11988
9 1.43061
10 2.12105
;
param x0 := 
1 2.00
2 1.62
3 0.62
4 -0.62
5 -1.62
6 -2.00
7 -1.62
8 -0.62
9 0.62
10 1.62
;
param y0 := 
1 -0.00
2 1.18
3 1.90
4 1.90
5 1.18
6 0.00
7 -1.18
8 -1.90
9 -1.90
10 -1.18
;
